NAME : P-n3-modified
COMMENT : (Augerat et al, No of trucks: 8, Optimal value: 450)
TYPE : CVRP
DIMENSION : 3
EDGE_WEIGHT_TYPE : EUC_2D
CAPACITY : 35
NODE_COORD_SECTION
1 30 40
3 49 49
7 42 41
DEMAND_SECTION
1 0
3 30
7 31
DEPOT_SECTION
 1
 -1
EOF
